10 45
1 2 169
1 3 62
1 4 120
1 5 63
1 6 42
1 7 246
1 8 17
1 9 292
1 10 242
2 3 146
2 4 96
2 5 178
2 6 24
2 7 196
2 8 159
2 9 185
2 10 258
3 4 81
3 5 202
3 6 220
3 7 80
3 8 290
3 9 228
3 10 26
4 5 260
4 6 84
4 7 215
4 8 287
4 9 296
4 10 156
5 6 45
5 7 78
5 8 65
5 9 196
5 10 213
6 7 93
6 8 16
6 9 181
6 10 22
7 8 22
7 9 191
7 10 154
8 9 136
8 10 272
9 10 152
